c description: Perfect Matching Principle on 
c generator: CNFgen (0.9.0)
c copyright: (C) 2012-2020 Massimo Lauria <massimo.lauria@uniroma1.it>
c url: https://massimolauria.net/cnfgen
c
p cnf 40 122
-1 -2 0
1 2 0
-3 -4 0
-3 -5 0
-4 -5 0
3 4 5 0
6 0
0
0
-7 -8 0
-7 -9 0
-8 -9 0
7 8 9 0
0
7 0
-10 -11 0
10 11 0
0
0
-12 -13 0
12 13 0
-12 -14 0
-12 -15 0
-12 -16 0
-12 -17 0
-14 -15 0
-14 -16 0
-14 -17 0
-15 -16 0
-15 -17 0
-16 -17 0
12 14 15 16 17 0
-18 -19 0
-18 -20 0
-19 -20 0
18 19 20 0
14 0
-21 -22 0
-21 -23 0
-21 -24 0
-21 -25 0
-22 -23 0
-22 -24 0
-22 -25 0
-23 -24 0
-23 -25 0
-24 -25 0
21 22 23 24 25 0
21 0
26 0
-8 -26 0
8 26 0
-27 -28 0
27 28 0
-22 -29 0
-22 -30 0
-29 -30 0
22 29 30 0
31 0
0
0
-1 -18 0
1 18 0
32 0
-3 -33 0
-3 -34 0
-3 -35 0
-33 -34 0
-33 -35 0
-34 -35 0
3 33 34 35 0
-15 -36 0
15 36 0
-2 -4 0
-2 -37 0
-4 -37 0
2 4 37 0
36 0
-9 -23 0
-9 -29 0
-9 -38 0
-23 -29 0
-23 -38 0
-29 -38 0
9 23 29 38 0
-5 -16 0
-5 -30 0
-16 -30 0
5 16 30 0
-10 -33 0
-10 -39 0
-10 -40 0
-33 -39 0
-33 -40 0
-39 -40 0
10 33 39 40 0
6 0
-32 -39 0
32 39 0
13 0
-19 -27 0
-19 -37 0
-27 -37 0
19 27 37 0
-20 -24 0
-20 -34 0
-24 -34 0
20 24 34 0
-31 -35 0
-31 -38 0
-31 -40 0
-35 -38 0
-35 -40 0
-38 -40 0
31 35 38 40 0
-11 -17 0
-11 -25 0
-11 -28 0
-17 -25 0
-17 -28 0
-25 -28 0
11 17 25 28 0